project/data/relief/relief10.dat.lp
\* Problem: robots *\

Minimize
 obj: + 0 x_1,1 + 46 x_1,2 + 4 x_1,3 + 99 x_1,4 + 10 x_1,5 + 7 x_1,6
 + 34 x_1,7 + 64 x_1,8 + 58 x_1,9 + 14 x_1,10 + 76 x_2,1 + 0 x_2,2
 + 55 x_2,3 + 41 x_2,4 + 14 x_2,5 + 56 x_2,6 + 81 x_2,7 + 53 x_2,8
 + 91 x_2,9 + 39 x_2,10 + 73 x_3,1 + 31 x_3,2 + 0 x_3,3 + 96 x_3,4
 + 70 x_3,5 + 78 x_3,6 + 6 x_3,7 + 39 x_3,8 + 76 x_3,9 + 60 x_3,10
 + 59 x_4,1 + 28 x_4,2 + 58 x_4,3 + 0 x_4,4 + 27 x_4,5 + 68 x_4,6
 + 23 x_4,7 + 61 x_4,8 + 84 x_4,9 + 33 x_4,10 + 75 x_5,1 + 13 x_5,2
 + 21 x_5,3 + 83 x_5,4 + 0 x_5,5 + 88 x_5,6 + 91 x_5,7 + 87 x_5,8
 + 41 x_5,9 + 82 x_5,10 + 27 x_6,1 + 15 x_6,2 + 65 x_6,3 + 30 x_6,4
 + 63 x_6,5 + 0 x_6,6 + 8 x_6,7 + 70 x_6,8 + 27 x_6,9 + 85 x_6,10
 + 82 x_7,1 + 39 x_7,2 + 13 x_7,3 + 40 x_7,4 + 55 x_7,5 + 92 x_7,6
 + 0 x_7,7 + 78 x_7,8 + 53 x_7,9 + 97 x_7,10 + 63 x_8,1 + 81 x_8,2
 + 10 x_8,3 + 85 x_8,4 + 16 x_8,5 + 68 x_8,6 + 73 x_8,7 + 0 x_8,8
 + 55 x_8,9 + 66 x_8,10 + 93 x_9,1 + 34 x_9,2 + 81 x_9,3 + 11 x_9,4
 + 65 x_9,5 + 97 x_9,6 + 47 x_9,7 + 73 x_9,8 + 0 x_9,9 + 26 x_9,10
 + 10 x_10,1 + x_10,2 + 65 x_10,3 + 75 x_10,4 + 93 x_10,5 + 72 x_10,6
 + 67 x_10,7 + 53 x_10,8 + 50 x_10,9 + 0 x_10,10

Subject To
 (1'): + x_1,10 + x_1,9 + x_1,8 + x_1,7 + x_1,6 + x_1,5 + x_1,4 + x_1,3
 + x_1,2 = 1
 (1'): + x_2,10 + x_2,9 + x_2,8 + x_2,7 + x_2,6 + x_2,5 + x_2,4 + x_2,3
 + x_2,1 = 1
 (1'): + x_3,10 + x_3,9 + x_3,8 + x_3,7 + x_3,6 + x_3,5 + x_3,4 + x_3,2
 + x_3,1 = 1
 (1'): + x_4,10 + x_4,9 + x_4,8 + x_4,7 + x_4,6 + x_4,5 + x_4,3 + x_4,2
 + x_4,1 = 1
 (1'): + x_5,10 + x_5,9 + x_5,8 + x_5,7 + x_5,6 + x_5,4 + x_5,3 + x_5,2
 + x_5,1 = 1
 (1'): + x_6,10 + x_6,9 + x_6,8 + x_6,7 + x_6,5 + x_6,4 + x_6,3 + x_6,2
 + x_6,1 = 1
 (1'): + x_7,10 + x_7,9 + x_7,8 + x_7,6 + x_7,5 + x_7,4 + x_7,3 + x_7,2
 + x_7,1 = 1
 (1'): + x_8,10 + x_8,9 + x_8,7 + x_8,6 + x_8,5 + x_8,4 + x_8,3 + x_8,2
 + x_8,1 = 1
 (1'): + x_9,10 + x_9,8 + x_9,7 + x_9,6 + x_9,5 + x_9,4 + x_9,3 + x_9,2
 + x_9,1 = 1
 (1'): + x_10,9 + x_10,8 + x_10,7 + x_10,6 + x_10,5 + x_10,4 + x_10,3
 + x_10,2 + x_10,1 = 1
 (2'): + x_10,1 + x_9,1 + x_8,1 + x_7,1 + x_6,1 + x_5,1 + x_4,1 + x_3,1
 + x_2,1 = 1
 (2'): + x_10,2 + x_9,2 + x_8,2 + x_7,2 + x_6,2 + x_5,2 + x_4,2 + x_3,2
 + x_1,2 = 1
 (2'): + x_10,3 + x_9,3 + x_8,3 + x_7,3 + x_6,3 + x_5,3 + x_4,3 + x_2,3
 + x_1,3 = 1
 (2'): + x_10,4 + x_9,4 + x_8,4 + x_7,4 + x_6,4 + x_5,4 + x_3,4 + x_2,4
 + x_1,4 = 1
 (2'): + x_10,5 + x_9,5 + x_8,5 + x_7,5 + x_6,5 + x_4,5 + x_3,5 + x_2,5
 + x_1,5 = 1
 (2'): + x_10,6 + x_9,6 + x_8,6 + x_7,6 + x_5,6 + x_4,6 + x_3,6 + x_2,6
 + x_1,6 = 1
 (2'): + x_10,7 + x_9,7 + x_8,7 + x_6,7 + x_5,7 + x_4,7 + x_3,7 + x_2,7
 + x_1,7 = 1
 (2'): + x_10,8 + x_9,8 + x_7,8 + x_6,8 + x_5,8 + x_4,8 + x_3,8 + x_2,8
 + x_1,8 = 1
 (2'): + x_10,9 + x_8,9 + x_7,9 + x_6,9 + x_5,9 + x_4,9 + x_3,9 + x_2,9
 + x_1,9 = 1
 (2'): + x_9,10 + x_8,10 + x_7,10 + x_6,10 + x_5,10 + x_4,10 + x_3,10
 + x_2,10 + x_1,10 = 1
 (3'): + x_3,7 + x_7,3 <= 1
 (3'): + x_2,5 + x_5,2 <= 1

Bounds
 0 <= x_1,1 <= 1
 0 <= x_1,2 <= 1
 0 <= x_1,3 <= 1
 0 <= x_1,4 <= 1
 0 <= x_1,5 <= 1
 0 <= x_1,6 <= 1
 0 <= x_1,7 <= 1
 0 <= x_1,8 <= 1
 0 <= x_1,9 <= 1
 0 <= x_1,10 <= 1
 0 <= x_2,1 <= 1
 0 <= x_2,2 <= 1
 0 <= x_2,3 <= 1
 0 <= x_2,4 <= 1
 0 <= x_2,5 <= 1
 0 <= x_2,6 <= 1
 0 <= x_2,7 <= 1
 0 <= x_2,8 <= 1
 0 <= x_2,9 <= 1
 0 <= x_2,10 <= 1
 0 <= x_3,1 <= 1
 0 <= x_3,2 <= 1
 0 <= x_3,3 <= 1
 0 <= x_3,4 <= 1
 0 <= x_3,5 <= 1
 0 <= x_3,6 <= 1
 0 <= x_3,7 <= 1
 0 <= x_3,8 <= 1
 0 <= x_3,9 <= 1
 0 <= x_3,10 <= 1
 0 <= x_4,1 <= 1
 0 <= x_4,2 <= 1
 0 <= x_4,3 <= 1
 0 <= x_4,4 <= 1
 0 <= x_4,5 <= 1
 0 <= x_4,6 <= 1
 0 <= x_4,7 <= 1
 0 <= x_4,8 <= 1
 0 <= x_4,9 <= 1
 0 <= x_4,10 <= 1
 0 <= x_5,1 <= 1
 0 <= x_5,2 <= 1
 0 <= x_5,3 <= 1
 0 <= x_5,4 <= 1
 0 <= x_5,5 <= 1
 0 <= x_5,6 <= 1
 0 <= x_5,7 <= 1
 0 <= x_5,8 <= 1
 0 <= x_5,9 <= 1
 0 <= x_5,10 <= 1
 0 <= x_6,1 <= 1
 0 <= x_6,2 <= 1
 0 <= x_6,3 <= 1
 0 <= x_6,4 <= 1
 0 <= x_6,5 <= 1
 0 <= x_6,6 <= 1
 0 <= x_6,7 <= 1
 0 <= x_6,8 <= 1
 0 <= x_6,9 <= 1
 0 <= x_6,10 <= 1
 0 <= x_7,1 <= 1
 0 <= x_7,2 <= 1
 0 <= x_7,3 <= 1
 0 <= x_7,4 <= 1
 0 <= x_7,5 <= 1
 0 <= x_7,6 <= 1
 0 <= x_7,7 <= 1
 0 <= x_7,8 <= 1
 0 <= x_7,9 <= 1
 0 <= x_7,10 <= 1
 0 <= x_8,1 <= 1
 0 <= x_8,2 <= 1
 0 <= x_8,3 <= 1
 0 <= x_8,4 <= 1
 0 <= x_8,5 <= 1
 0 <= x_8,6 <= 1
 0 <= x_8,7 <= 1
 0 <= x_8,8 <= 1
 0 <= x_8,9 <= 1
 0 <= x_8,10 <= 1
 0 <= x_9,1 <= 1
 0 <= x_9,2 <= 1
 0 <= x_9,3 <= 1
 0 <= x_9,4 <= 1
 0 <= x_9,5 <= 1
 0 <= x_9,6 <= 1
 0 <= x_9,7 <= 1
 0 <= x_9,8 <= 1
 0 <= x_9,9 <= 1
 0 <= x_9,10 <= 1
 0 <= x_10,1 <= 1
 0 <= x_10,2 <= 1
 0 <= x_10,3 <= 1
 0 <= x_10,4 <= 1
 0 <= x_10,5 <= 1
 0 <= x_10,6 <= 1
 0 <= x_10,7 <= 1
 0 <= x_10,8 <= 1
 0 <= x_10,9 <= 1
 0 <= x_10,10 <= 1

Generals
 x_1,1
 x_1,2
 x_1,3
 x_1,4
 x_1,5
 x_1,6
 x_1,7
 x_1,8
 x_1,9
 x_1,10
 x_2,1
 x_2,2
 x_2,3
 x_2,4
 x_2,5
 x_2,6
 x_2,7
 x_2,8
 x_2,9
 x_2,10
 x_3,1
 x_3,2
 x_3,3
 x_3,4
 x_3,5
 x_3,6
 x_3,7
 x_3,8
 x_3,9
 x_3,10
 x_4,1
 x_4,2
 x_4,3
 x_4,4
 x_4,5
 x_4,6
 x_4,7
 x_4,8
 x_4,9
 x_4,10
 x_5,1
 x_5,2
 x_5,3
 x_5,4
 x_5,5
 x_5,6
 x_5,7
 x_5,8
 x_5,9
 x_5,10
 x_6,1
 x_6,2
 x_6,3
 x_6,4
 x_6,5
 x_6,6
 x_6,7
 x_6,8
 x_6,9
 x_6,10
 x_7,1
 x_7,2
 x_7,3
 x_7,4
 x_7,5
 x_7,6
 x_7,7
 x_7,8
 x_7,9
 x_7,10
 x_8,1
 x_8,2
 x_8,3
 x_8,4
 x_8,5
 x_8,6
 x_8,7
 x_8,8
 x_8,9
 x_8,10
 x_9,1
 x_9,2
 x_9,3
 x_9,4
 x_9,5
 x_9,6
 x_9,7
 x_9,8
 x_9,9
 x_9,10
 x_10,1
 x_10,2
 x_10,3
 x_10,4
 x_10,5
 x_10,6
 x_10,7
 x_10,8
 x_10,9
 x_10,10

End
